# Sigma 5 (310)[100] bcc Fe - substitution
1.000000
     56.30598875        0.00000000        0.00000000
      0.00000000       26.91852903        0.00000000
      0.00000000        0.00000000       31.21206000
 Fe  C
  3762     396
Cartesian
      0.02038902       -0.07472007        0.00059783
      9.40472048        0.07472007       -0.00059783
      9.32930358        4.26610750        1.41776703
     -0.05502788        4.70673551        1.41969297
      6.48047898        0.82106176        2.83655587
      3.76412080        1.72576368        2.83735485
      7.37343963        3.56095056        2.83643691
      4.69201019        4.43001377        2.83715999
      1.98567036        5.30546801        2.83715694
      8.29862835        6.19905326        2.83576943
      5.62993588        7.13814746        2.83701545
      2.91865356        8.04427547        2.83713902
      4.70055109       -0.05436988        1.41775935
      1.89981165        0.84209748        1.41897380
      8.20261356        1.77567729        1.41775885
      5.56708422        2.63148755        1.41801901
      2.84819243        3.52689749        1.41787758
      6.52135235        5.34266508        1.41773490
      3.80291482        6.21501674        1.41840739
      1.18612278        7.11252358        1.41881070
      7.51702950        8.03190005        1.41777278
     12.30298502        0.92856753        0.00032098
     15.01426734        1.83469555        0.00044455
     17.68295980        2.77378974        0.00169057
     11.37000181        3.66737500        0.00030306
     14.07634165        4.54282924        0.00030001
     16.75777109        5.41189245        0.00102309
     13.14845226        7.24707933        0.00010515
     15.86481044        8.15178125        0.00090413
     14.08488255        0.05436988        1.41970065
     16.90136096        0.94094296        1.41968722
     10.57045800        1.86031943        1.41864930
     13.18724628        2.75782627        1.41905261
     15.90568381        3.63017793        1.41972510
     12.23252389        5.44594552        1.41958242
     14.95141568        6.34135546        1.41944099
     17.58694502        7.19716572        1.41970115
     11.28414311        8.13074553        1.41848620
     18.78905194       -0.07472007        0.00059783
     28.17338340        0.07472007       -0.00059783
     28.09796650        4.26610750        1.41776703
     18.71363504        4.70673551        1.41969297
     25.24914190        0.82106176        2.83655587
     22.53278372        1.72576368        2.83735485
     26.14210255        3.56095056        2.83643691
     23.46067311        4.43001377        2.83715999
     20.75433327        5.30546801        2.83715694
     27.06729126        6.19905326        2.83576943
     24.39859880        7.13814746        2.83701545
     21.68731648        8.04427547        2.83713902
     23.46921400       -0.05436988        1.41775935
     20.66847457        0.84209748        1.41897380
     26.97127647        1.77567729        1.41775885
     24.33574714        2.63148755        1.41801901
     21.61685534        3.52689749        1.41787758
     25.29001526        5.34266508        1.41773490
     22.57157774        6.21501674        1.41840739
     19.95478570        7.11252358        1.41881070
     26.28569242        8.03190005        1.41777278
     31.07164794        0.92856753        0.00032098
     33.78293025        1.83469555        0.00044455
     36.45162272        2.77378974        0.00169057
     30.13866473        3.66737500        0.00030306
     32.84500457        4.54282924        0.00030001
     35.52643401        5.41189245        0.00102309
     31.91711518        7.24707933        0.00010515
     34.63347335        8.15178125        0.00090413
     32.85354546        0.05436988        1.41970065
     35.67002387        0.94094296        1.41968722
     29.33912091        1.86031943        1.41864930
     31.95590920        2.75782627        1.41905261
     34.67434672        3.63017793        1.41972510
     31.00118680        5.44594552        1.41958242
     33.72007860        6.34135546        1.41944099
     36.35560793        7.19716572        1.41970115
     30.05280603        8.13074553        1.41848620
     37.55771485       -0.07472007        0.00059783
     46.94204631        0.07472007       -0.00059783
     46.86662941        4.26610750        1.41776703
     37.48229796        4.70673551        1.41969297
     44.01780481        0.82106176        2.83655587
     41.30144663        1.72576368        2.83735485
     44.91076547        3.56095056        2.83643691
     42.22933603        4.43001377        2.83715999
     39.52299619        5.30546801        2.83715694
     45.83595418        6.19905326        2.83576943
     43.16726171        7.13814746        2.83701545
     40.45597939        8.04427547        2.83713902
     42.23787692       -0.05436988        1.41775935
     39.43713748        0.84209748        1.41897380
     45.73993939        1.77567729        1.41775885
     43.10441005        2.63148755        1.41801901
     40.38551826        3.52689749        1.41787758
     44.05867818        5.34266508        1.41773490
     41.34024065        6.21501674        1.41840739
     38.72344862        7.11252358        1.41881070
     45.05435533        8.03190005        1.41777278
     49.84031085        0.92856753        0.00032098
     52.55159317        1.83469555        0.00044455
     55.22028564        2.77378974        0.00169057
     48.90732765        3.66737500        0.00030306
     51.61366748        4.54282924        0.00030001
     54.29509692        5.41189245        0.00102309
     50.68577809        7.24707933        0.00010515
     53.40213627        8.15178125        0.00090413
     51.62220838        0.05436988        1.41970065
     54.43868679        0.94094296        1.41968722
     48.10778383        1.86031943        1.41864930
     50.72457211        2.75782627        1.41905261
     53.44300964        3.63017793        1.41972510
     49.76984972        5.44594552        1.41958242
     52.48874151        6.34135546        1.41944099
     55.12427085        7.19716572        1.41970115
     48.82146894        8.13074553        1.41848620
      0.02038902        8.89812294        0.00059783
      9.40472048        9.04756307       -0.00059783
      9.32930358       13.23895050        1.41776703
     -0.05502788       13.67957852        1.41969297
      6.48047898        9.79390477        2.83655587
      3.76412080       10.69860669        2.83735485
      7.37343963       12.53379357        2.83643691
      4.69201019       13.40285678        2.83715999
      1.98567036       14.27831102        2.83715694
      8.29862835       15.17189627        2.83576943
      5.62993588       16.11099047        2.83701545
      2.91865356       17.01711848        2.83713902
      4.70055109        8.91847313        1.41775935
      1.89981165        9.81494048        1.41897380
      8.20261356       10.74852030        1.41775885
      5.56708422       11.60433056        1.41801901
      2.84819243       12.49974050        1.41787758
      6.52135235       14.31550809        1.41773490
      3.80291482       15.18785975        1.41840739
      1.18612278       16.08536659        1.41881070
      7.51702950       17.00474306        1.41777278
     12.30298502        9.90141054        0.00032098
     15.01426734       10.80753856        0.00044455
     17.68295980       11.74663275        0.00169057
     11.37000181       12.64021801        0.00030306
     14.07634165       13.51567225        0.00030001
     16.75777109       14.38473546        0.00102309
     13.14845226       16.21992234        0.00010515
     15.86481044       17.12462426        0.00090413
     14.08488255        9.02721289        1.41970065
     16.90136096        9.91378596        1.41968722
     10.57045800       10.83316243        1.41864930
     13.18724628       11.73066928        1.41905261
     15.90568381       12.60302094        1.41972510
     12.23252389       14.41878853        1.41958242
     14.95141568       15.31419846        1.41944099
     17.58694502       16.17000873        1.41970115
     11.28414311       17.10358854        1.41848620
     18.78905194        8.89812294        0.00059783
     28.17338340        9.04756307       -0.00059783
     28.09796650       13.23895050        1.41776703
     18.71363504       13.67957852        1.41969297
     25.24914190        9.79390477        2.83655587
     22.53278372       10.69860669        2.83735485
     26.14210255       12.53379357        2.83643691
     23.46067311       13.40285678        2.83715999
     20.75433327       14.27831102        2.83715694
     27.06729126       15.17189627        2.83576943
     24.39859880       16.11099047        2.83701545
     21.68731648       17.01711848        2.83713902
     23.46921400        8.91847313        1.41775935
     20.66847457        9.81494048        1.41897380
     26.97127647       10.74852030        1.41775885
     24.33574714       11.60433056        1.41801901
     21.61685534       12.49974050        1.41787758
     25.29001526       14.31550809        1.41773490
     22.57157774       15.18785975        1.41840739
     19.95478570       16.08536659        1.41881070
     26.28569242       17.00474306        1.41777278
     31.07164794        9.90141054        0.00032098
     33.78293025       10.80753856        0.00044455
     36.45162272       11.74663275        0.00169057
     30.13866473       12.64021801        0.00030306
     32.84500457       13.51567225        0.00030001
     35.52643401       14.38473546        0.00102309
     31.91711518       16.21992234        0.00010515
     34.63347335       17.12462426        0.00090413
     32.85354546        9.02721289        1.41970065
     35.67002387        9.91378596        1.41968722
     29.33912091       10.83316243        1.41864930
     31.95590920       11.73066928        1.41905261
     34.67434672       12.60302094        1.41972510
     31.00118680       14.41878853        1.41958242
     33.72007860       15.31419846        1.41944099
     36.35560793       16.17000873        1.41970115
     30.05280603       17.10358854        1.41848620
     37.55771485        8.89812294        0.00059783
     46.94204631        9.04756307       -0.00059783
     46.86662941       13.23895050        1.41776703
     37.48229796       13.67957852        1.41969297
     44.01780481        9.79390477        2.83655587
     41.30144663       10.69860669        2.83735485
     44.91076547       12.53379357        2.83643691
     42.22933603       13.40285678        2.83715999
     39.52299619       14.27831102        2.83715694
     45.83595418       15.17189627        2.83576943
     43.16726171       16.11099047        2.83701545
     40.45597939       17.01711848        2.83713902
     42.23787692        8.91847313        1.41775935
     39.43713748        9.81494048        1.41897380
     45.73993939       10.74852030        1.41775885
     43.10441005       11.60433056        1.41801901
     40.38551826       12.49974050        1.41787758
     44.05867818       14.31550809        1.41773490
     41.34024065       15.18785975        1.41840739
     38.72344862       16.08536659        1.41881070
     45.05435533       17.00474306        1.41777278
     49.84031085        9.90141054        0.00032098
     52.55159317       10.80753856        0.00044455
     55.22028564       11.74663275        0.00169057
     48.90732765       12.64021801        0.00030306
     51.61366748       13.51567225        0.00030001
     54.29509692       14.38473546        0.00102309
     50.68577809       16.21992234        0.00010515
     53.40213627       17.12462426        0.00090413
     51.62220838        9.02721289        1.41970065
     54.43868679        9.91378596        1.41968722
     48.10778383       10.83316243        1.41864930
     50.72457211       11.73066928        1.41905261
     53.44300964       12.60302094        1.41972510
     49.76984972       14.41878853        1.41958242
     52.48874151       15.31419846        1.41944099
     55.12427085       16.17000873        1.41970115
     48.82146894       17.10358854        1.41848620
      0.02038902       17.87096595        0.00059783
      9.40472048       18.02040608       -0.00059783
      9.32930358       22.21179351        1.41776703
     -0.05502788       22.65242153        1.41969297
      6.48047898       18.76674778        2.83655587
      3.76412080       19.67144970        2.83735485
      7.37343963       21.50663658        2.83643691
      4.69201019       22.37569979        2.83715999
      1.98567036       23.25115403        2.83715694
      8.29862835       24.14473928        2.83576943
      5.62993588       25.08383348        2.83701545
      2.91865356       25.98996149        2.83713902
      4.70055109       17.89131614        1.41775935
      1.89981165       18.78778349        1.41897380
      8.20261356       19.72136331        1.41775885
      5.56708422       20.57717357        1.41801901
      2.84819243       21.47258351        1.41787758
      6.52135235       23.28835110        1.41773490
      3.80291482       24.16070276        1.41840739
      1.18612278       25.05820960        1.41881070
      7.51702950       25.97758607        1.41777278
     12.30298502       18.87425355        0.00032098
     15.01426734       19.78038156        0.00044455
     17.68295980       20.71947576        0.00169057
     11.37000181       21.61306102        0.00030306
     14.07634165       22.48851526        0.00030001
     16.75777109       23.35757847        0.00102309
     13.14845226       25.19276535        0.00010515
     15.86481044       26.09746726        0.00090413
     14.08488255       18.00005590        1.41970065
     16.90136096       18.88662897        1.41968722
     10.57045800       19.80600544        1.41864930
     13.18724628       20.70351229        1.41905261
     15.90568381       21.57586395        1.41972510
     12.23252389       23.39163154        1.41958242
     14.95141568       24.28704147        1.41944099
     17.58694502       25.14285174        1.41970115
     11.28414311       26.07643155        1.41848620
     18.78905194       17.87096595        0.00059783
     28.17338340       18.02040608       -0.00059783
     28.09796650       22.21179351        1.41776703
     18.71363504       22.65242153        1.41969297
     25.24914190       18.76674778        2.83655587
     22.53278372       19.67144970        2.83735485
     26.14210255       21.50663658        2.83643691
     23.46067311       22.37569979        2.83715999
     20.75433327       23.25115403        2.83715694
     27.06729126       24.14473928        2.83576943
     24.39859880       25.08383348        2.83701545
     21.68731648       25.98996149        2.83713902
     23.46921400       17.89131614        1.41775935
     20.66847457       18.78778349        1.41897380
     26.97127647       19.72136331        1.41775885
     24.33574714       20.57717357        1.41801901
     21.61685534       21.47258351        1.41787758
     25.29001526       23.28835110        1.41773490
     22.57157774       24.16070276        1.41840739
     19.95478570       25.05820960        1.41881070
     26.28569242       25.97758607        1.41777278
     31.07164794       18.87425355        0.00032098
     33.78293025       19.78038156        0.00044455
     36.45162272       20.71947576        0.00169057
     30.13866473       21.61306102        0.00030306
     32.84500457       22.48851526        0.00030001
     35.52643401       23.35757847        0.00102309
     31.91711518       25.19276535        0.00010515
     34.63347335       26.09746726        0.00090413
     32.85354546       18.00005590        1.41970065
     35.67002387       18.88662897        1.41968722
     29.33912091       19.80600544        1.41864930
     31.95590920       20.70351229        1.41905261
     34.67434672       21.57586395        1.41972510
     31.00118680       23.39163154        1.41958242
     33.72007860       24.28704147        1.41944099
     36.35560793       25.14285174        1.41970115
     30.05280603       26.07643155        1.41848620
     37.55771485       17.87096595        0.00059783
     46.94204631       18.02040608       -0.00059783
     46.86662941       22.21179351        1.41776703
     37.48229796       22.65242153        1.41969297
     44.01780481       18.76674778        2.83655587
     41.30144663       19.67144970        2.83735485
     44.91076547       21.50663658        2.83643691
     42.22933603       22.37569979        2.83715999
     39.52299619       23.25115403        2.83715694
     45.83595418       24.14473928        2.83576943
     43.16726171       25.08383348        2.83701545
     40.45597939       25.98996149        2.83713902
     42.23787692       17.89131614        1.41775935
     39.43713748       18.78778349        1.41897380
     45.73993939       19.72136331        1.41775885
     43.10441005       20.57717357        1.41801901
     40.38551826       21.47258351        1.41787758
     44.05867818       23.28835110        1.41773490
     41.34024065       24.16070276        1.41840739
     38.72344862       25.05820960        1.41881070
     45.05435533       25.97758607        1.41777278
     49.84031085       18.87425355        0.00032098
     52.55159317       19.78038156        0.00044455
     55.22028564       20.71947576        0.00169057
     48.90732765       21.61306102        0.00030306
     51.61366748       22.48851526        0.00030001
     54.29509692       23.35757847        0.00102309
     50.68577809       25.19276535        0.00010515
     53.40213627       26.09746726        0.00090413
     51.62220838       18.00005590        1.41970065
     54.43868679       18.88662897        1.41968722
     48.10778383       19.80600544        1.41864930
     50.72457211       20.70351229        1.41905261
     53.44300964       21.57586395        1.41972510
     49.76984972       23.39163154        1.41958242
     52.48874151       24.28704147        1.41944099
     55.12427085       25.14285174        1.41970115
     48.82146894       26.07643155        1.41848620
      0.02038902       -0.07472007        2.83805783
      9.40472048        0.07472007        2.83686217
      9.32930358        4.26610750        4.25522703
     -0.05502788        4.70673551        4.25715297
      6.48047898        0.82106176        5.67401587
      3.76412080        1.72576368        5.67481485
      7.37343963        3.56095056        5.67389691
      4.69201019        4.43001377        5.67461999
      1.98567036        5.30546801        5.67461694
      8.29862835        6.19905326        5.67322943
      5.62993588        7.13814746        5.67447545
      2.91865356        8.04427547        5.67459902
      4.70055109       -0.05436988        4.25521935
      1.89981165        0.84209748        4.25643380
      8.20261356        1.77567729        4.25521885
      5.56708422        2.63148755        4.25547901
      2.84819243        3.52689749        4.25533758
      6.52135235        5.34266508        4.25519490
      3.80291482        6.21501674        4.25586739
      1.18612278        7.11252358        4.25627070
      7.51702950        8.03190005        4.25523278
     12.30298502        0.92856753        2.83778098
     15.01426734        1.83469555        2.83790455
     17.68295980        2.77378974        2.83915057
     11.37000181        3.66737500        2.83776306
     14.07634165        4.54282924        2.83776001
     16.75777109        5.41189245        2.83848309
     13.14845226        7.24707933        2.83756515
     15.86481044        8.15178125        2.83836413
     14.08488255        0.05436988        4.25716065
     16.90136096        0.94094296        4.25714722
     10.57045800        1.86031943        4.25610930
     13.18724628        2.75782627        4.25651261
     15.90568381        3.63017793        4.25718510
     12.23252389        5.44594552        4.25704242
     14.95141568        6.34135546        4.25690099
     17.58694502        7.19716572        4.25716115
     11.28414311        8.13074553        4.25594620
     18.78905194       -0.07472007        2.83805783
     28.17338340        0.07472007        2.83686217
     28.09796650        4.26610750        4.25522703
     18.71363504        4.70673551        4.25715297
     25.24914190        0.82106176        5.67401587
     22.53278372        1.72576368        5.67481485
     26.14210255        3.56095056        5.67389691
     23.46067311        4.43001377        5.67461999
     20.75433327        5.30546801        5.67461694
     27.06729126        6.19905326        5.67322943
     24.39859880        7.13814746        5.67447545
     21.68731648        8.04427547        5.67459902
     23.46921400       -0.05436988        4.25521935
     20.66847457        0.84209748        4.25643380
     26.97127647        1.77567729        4.25521885
     24.33574714        2.63148755        4.25547901
     21.61685534        3.52689749        4.25533758
     25.29001526        5.34266508        4.25519490
     22.57157774        6.21501674        4.25586739
     19.95478570        7.11252358        4.25627070
     26.28569242        8.03190005        4.25523278
     31.07164794        0.92856753        2.83778098
     33.78293025        1.83469555        2.83790455
     36.45162272        2.77378974        2.83915057
     30.13866473        3.66737500        2.83776306
     32.84500457        4.54282924        2.83776001
     35.52643401        5.41189245        2.83848309
     31.91711518        7.24707933        2.83756515
     34.63347335        8.15178125        2.83836413
     32.85354546        0.05436988        4.25716065
     35.67002387        0.94094296        4.25714722
     29.33912091        1.86031943        4.25610930
     31.95590920        2.75782627        4.25651261
     34.67434672        3.63017793        4.25718510
     31.00118680        5.44594552        4.25704242
     33.72007860        6.34135546        4.25690099
     36.35560793        7.19716572        4.25716115
     30.05280603        8.13074553        4.25594620
     37.55771485       -0.07472007        2.83805783
     46.94204631        0.07472007        2.83686217
     46.86662941        4.26610750        4.25522703
     37.48229796        4.70673551        4.25715297
     44.01780481        0.82106176        5.67401587
     41.30144663        1.72576368        5.67481485
     44.91076547        3.56095056        5.67389691
     42.22933603        4.43001377        5.67461999
     39.52299619        5.30546801        5.67461694
     45.83595418        6.19905326        5.67322943
     43.16726171        7.13814746        5.67447545
     40.45597939        8.04427547        5.67459902
     42.23787692       -0.05436988        4.25521935
     39.43713748        0.84209748        4.25643380
     45.73993939        1.77567729        4.25521885
     43.10441005        2.63148755        4.25547901
     40.38551826        3.52689749        4.25533758
     44.05867818        5.34266508        4.25519490
     41.34024065        6.21501674        4.25586739
     38.72344862        7.11252358        4.25627070
     45.05435533        8.03190005        4.25523278
     49.84031085        0.92856753        2.83778098
     52.55159317        1.83469555        2.83790455
     55.22028564        2.77378974        2.83915057
     48.90732765        3.66737500        2.83776306
     51.61366748        4.54282924        2.83776001
     54.29509692        5.41189245        2.83848309
     50.68577809        7.24707933        2.83756515
     53.40213627        8.15178125        2.83836413
     51.62220838        0.05436988        4.25716065
     54.43868679        0.94094296        4.25714722
     48.10778383        1.86031943        4.25610930
     50.72457211        2.75782627        4.25651261
     53.44300964        3.63017793        4.25718510
     49.76984972        5.44594552        4.25704242
     52.48874151        6.34135546        4.25690099
     55.12427085        7.19716572        4.25716115
     48.82146894        8.13074553        4.25594620
      0.02038902        8.89812294        2.83805783
      9.40472048        9.04756307        2.83686217
      9.32930358       13.23895050        4.25522703
     -0.05502788       13.67957852        4.25715297
      6.48047898        9.79390477        5.67401587
      3.76412080       10.69860669        5.67481485
      7.37343963       12.53379357        5.67389691
      4.69201019       13.40285678        5.67461999
      1.98567036       14.27831102        5.67461694
      8.29862835       15.17189627        5.67322943
      5.62993588       16.11099047        5.67447545
      2.91865356       17.01711848        5.67459902
      4.70055109        8.91847313        4.25521935
      1.89981165        9.81494048        4.25643380
      8.20261356       10.74852030        4.25521885
      5.56708422       11.60433056        4.25547901
      2.84819243       12.49974050        4.25533758
      6.52135235       14.31550809        4.25519490
      3.80291482       15.18785975        4.25586739
      1.18612278       16.08536659        4.25627070
      7.51702950       17.00474306        4.25523278
     12.30298502        9.90141054        2.83778098
     15.01426734       10.80753856        2.83790455
     17.68295980       11.74663275        2.83915057
     11.37000181       12.64021801        2.83776306
     14.07634165       13.51567225        2.83776001
     16.75777109       14.38473546        2.83848309
     13.14845226       16.21992234        2.83756515
     15.86481044       17.12462426        2.83836413
     14.08488255        9.02721289        4.25716065
     16.90136096        9.91378596        4.25714722
     10.57045800       10.83316243        4.25610930
     13.18724628       11.73066928        4.25651261
     15.90568381       12.60302094        4.25718510
     12.23252389       14.41878853        4.25704242
     14.95141568       15.31419846        4.25690099
     17.58694502       16.17000873        4.25716115
     11.28414311       17.10358854        4.25594620
     18.78905194        8.89812294        2.83805783
     28.17338340        9.04756307        2.83686217
     28.09796650       13.23895050        4.25522703
     18.71363504       13.67957852        4.25715297
     25.24914190        9.79390477        5.67401587
     22.53278372       10.69860669        5.67481485
     26.14210255       12.53379357        5.67389691
     23.46067311       13.40285678        5.67461999
     20.75433327       14.27831102        5.67461694
     27.06729126       15.17189627        5.67322943
     24.39859880       16.11099047        5.67447545
     21.68731648       17.01711848        5.67459902
     23.46921400        8.91847313        4.25521935
     20.66847457        9.81494048        4.25643380
     26.97127647       10.74852030        4.25521885
     24.33574714       11.60433056        4.25547901
     21.61685534       12.49974050        4.25533758
     25.29001526       14.31550809        4.25519490
     22.57157774       15.18785975        4.25586739
     19.95478570       16.08536659        4.25627070
     26.28569242       17.00474306        4.25523278
     31.07164794        9.90141054        2.83778098
     33.78293025       10.80753856        2.83790455
     36.45162272       11.74663275        2.83915057
     30.13866473       12.64021801        2.83776306
     32.84500457       13.51567225        2.83776001
     35.52643401       14.38473546        2.83848309
     31.91711518       16.21992234        2.83756515
     34.63347335       17.12462426        2.83836413
     32.85354546        9.02721289        4.25716065
     35.67002387        9.91378596        4.25714722
     29.33912091       10.83316243        4.25610930
     31.95590920       11.73066928        4.25651261
     34.67434672       12.60302094        4.25718510
     31.00118680       14.41878853        4.25704242
     33.72007860       15.31419846        4.25690099
     36.35560793       16.17000873        4.25716115
     30.05280603       17.10358854        4.25594620
     37.55771485        8.89812294        2.83805783
     46.94204631        9.04756307        2.83686217
     46.86662941       13.23895050        4.25522703
     37.48229796       13.67957852        4.25715297
     44.01780481        9.79390477        5.67401587
     41.30144663       10.69860669        5.67481485
     44.91076547       12.53379357        5.67389691
     42.22933603       13.40285678        5.67461999
     39.52299619       14.27831102        5.67461694
     45.83595418       15.17189627        5.67322943
     43.16726171       16.11099047        5.67447545
     40.45597939       17.01711848        5.67459902
     42.23787692        8.91847313        4.25521935
     39.43713748        9.81494048        4.25643380
     45.73993939       10.74852030        4.25521885
     43.10441005       11.60433056        4.25547901
     40.38551826       12.49974050        4.25533758
     44.05867818       14.31550809        4.25519490
     41.34024065       15.18785975        4.25586739
     38.72344862       16.08536659        4.25627070
     45.05435533       17.00474306        4.25523278
     49.84031085        9.90141054        2.83778098
     52.55159317       10.80753856        2.83790455
     55.22028564       11.74663275        2.83915057
     48.90732765       12.64021801        2.83776306
     51.61366748       13.51567225        2.83776001
     54.29509692       14.38473546        2.83848309
     50.68577809       16.21992234        2.83756515
     53.40213627       17.12462426        2.83836413